\ENCODING=ISO-8859-1
\Problem name: IloCplex

Minimize
 obj: 37 x_0,0 + 94 x_0,1 + 26 x_0,2 + 76 x_0,3 + 118 x_0,4 + 32 x_0,5
      + 109 x_0,6 + 79 x_0,7 + 51 x_0,8 + 178 x_0,9 + 97 x_0,10 + 45 x_0,11
      + 67 x_1,0 + 110 x_1,1 + 44 x_1,2 + 99 x_1,3 + 133 x_1,4 + 46 x_1,5
      + 106 x_1,6 + 110 x_1,7 + 80 x_1,8 + 150 x_1,9 + 140 x_1,10 + 60 x_1,11
      + 30 x_2,0 + 80 x_2,1 + 50 x_2,2 + 66 x_2,3 + 78 x_2,4 + 45 x_2,5
      + 87 x_2,6 + 93 x_2,7 + 44 x_2,8 + 85 x_2,9 + 105 x_2,10 + 54 x_2,11
      + 64 x_3,0 + 34 x_3,1 + 87 x_3,2 + 89 x_3,3 + 94 x_3,4 + 54 x_3,5
      + 91 x_3,6 + 80 x_3,7 + 67 x_3,8 + 129 x_3,9 + 110 x_3,10 + 80 x_3,11
Subject To
 rest_t_0:  x_0,0 + x_1,0 + x_2,0 + x_3,0  = 1
 rest_t_1:  x_0,1 + x_1,1 + x_2,1 + x_3,1  = 1
 rest_t_2:  x_0,2 + x_1,2 + x_2,2 + x_3,2  = 1
 rest_t_3:  x_0,3 + x_1,3 + x_2,3 + x_3,3  = 1
 rest_t_4:  x_0,4 + x_1,4 + x_2,4 + x_3,4  = 1
 rest_t_5:  x_0,5 + x_1,5 + x_2,5 + x_3,5  = 1
 rest_t_6:  x_0,6 + x_1,6 + x_2,6 + x_3,6  = 1
 rest_t_7:  x_0,7 + x_1,7 + x_2,7 + x_3,7  = 1
 rest_t_8:  x_0,8 + x_1,8 + x_2,8 + x_3,8  = 1
 rest_t_9:  x_0,9 + x_1,9 + x_2,9 + x_3,9  = 1
 rest_t_10: x_0,10 + x_1,10 + x_2,10 + x_3,10  = 1
 rest_t_11: x_0,11 + x_1,11 + x_2,11 + x_3,11  = 1
Bounds
 0 <= x_0,0 <= 1
 0 <= x_0,1 <= 1
 0 <= x_0,2 <= 1
 0 <= x_0,3 <= 1
 0 <= x_0,4 <= 1
 0 <= x_0,5 <= 1
 0 <= x_0,6 <= 1
 0 <= x_0,7 <= 1
 0 <= x_0,8 <= 1
 0 <= x_0,9 <= 1
 0 <= x_0,10 <= 1
 0 <= x_0,11 <= 1
 0 <= x_1,0 <= 1
 0 <= x_1,1 <= 1
 0 <= x_1,2 <= 1
 0 <= x_1,3 <= 1
 0 <= x_1,4 <= 1
 0 <= x_1,5 <= 1
 0 <= x_1,6 <= 1
 0 <= x_1,7 <= 1
 0 <= x_1,8 <= 1
 0 <= x_1,9 <= 1
 0 <= x_1,10 <= 1
 0 <= x_1,11 <= 1
 0 <= x_2,0 <= 1
 0 <= x_2,1 <= 1
 0 <= x_2,2 <= 1
 0 <= x_2,3 <= 1
 0 <= x_2,4 <= 1
 0 <= x_2,5 <= 1
 0 <= x_2,6 <= 1
 0 <= x_2,7 <= 1
 0 <= x_2,8 <= 1
 0 <= x_2,9 <= 1
 0 <= x_2,10 <= 1
 0 <= x_2,11 <= 1
 0 <= x_3,0 <= 1
 0 <= x_3,1 <= 1
 0 <= x_3,2 <= 1
 0 <= x_3,3 <= 1
 0 <= x_3,4 <= 1
 0 <= x_3,5 <= 1
 0 <= x_3,6 <= 1
 0 <= x_3,7 <= 1
 0 <= x_3,8 <= 1
 0 <= x_3,9 <= 1
 0 <= x_3,10 <= 1
 0 <= x_3,11 <= 1
Binaries
 x_0,0  x_0,1  x_0,2  x_0,3  x_0,4  x_0,5  x_0,6  x_0,7  x_0,8  x_0,9  x_0,10 
 x_0,11  x_1,0  x_1,1  x_1,2  x_1,3  x_1,4  x_1,5  x_1,6  x_1,7  x_1,8  x_1,9 
 x_1,10  x_1,11  x_2,0  x_2,1  x_2,2  x_2,3  x_2,4  x_2,5  x_2,6  x_2,7  x_2,8 
 x_2,9  x_2,10  x_2,11  x_3,0  x_3,1  x_3,2  x_3,3  x_3,4  x_3,5  x_3,6  x_3,7 
 x_3,8  x_3,9  x_3,10  x_3,11 
End
